% MIT License
%
% Copyright (c) 2021 Johan Ludde Wessén
%
% Permission is hereby granted, free of charge, to any person obtaining 
% a copy of this software and associated documentation files (the "Software"),
% to deal in the Software without restriction, including without limitation 
% the rights to use, copy, modify, merge, publish, distribute, sublicense, 
% and/or sell copies of the Software, and to permit persons to whom the 
% Software is furnished to do so, subject to the following conditions:
% 
% The above copyright notice and this permission notice shall be included 
% in all copies or substantial portions of the Software.
%
% THE SOFTWARE IS PROVIDED "AS IS", WITHOUT WARRANTY OF ANY KIND, 
% EXPRESS OR IMPLIED, INCLUDING BUT NOT LIMITED TO THE WARRANTIES OF
% MERCHANTABILITY, FITNESS FOR A PARTICULAR PURPOSE AND
% NONINFRINGEMENT. IN NO EVENT SHALL THE AUTHORS OR COPYRIGHT HOLDERS BE
% LIABLE FOR ANY CLAIM, DAMAGES OR OTHER LIABILITY, WHETHER IN AN ACTION
% OF CONTRACT, TORT OR OTHERWISE, ARISING FROM, OUT OF OR IN CONNECTION
% WITH THE SOFTWARE OR THE USE OR OTHER DEALINGS IN THE SOFTWARE.

%-----------------------------------------------------------------------------%
% Dual Arm Multi Capacity Multi Tool Scheduling / Routing
% Assembly Configuration
% Auto Generated by python script, authored by Johan Ludde Wessen 
%-----------------------------------------------------------------------------%


task_durations = [|29, 28, 34, 21, 26, 26, 54, 49, 53, 55, 50, 50, 27, 28, 24, 30,  7,  6,  7,  7,  7
                  |24, 30, 27, 24, 33, 30, 55, 51, 56, 47, 46, 44, 26, 26, 27, 25,  6,  5,  7,  8,  7
                  |];


TRAY_TASKS = 1..4;
CAMERA_TASKS = 13..16;
OUTPUT_TASKS = { 12 };


empty_gripper_tasks = 17..21;


gripper_pick_tasks_orders = [|5, 11, -1
|6, 12, -1
|];

suction_pick_tasks_orders = [|1, 13, 7, -1
|2, 14, 8, -1
|3, 15, 9, -1
|4, 16, 10, -1
|];

fixture_task_orders = [|7, 17, 8, 18, 5, -1, -1, -1
|9, 19, 10, 20, 11, 21, 6, -1
|];

